results - Copia/mps/URT_03_deadline_heurFalse.mps
NAME JobShopModel
ROWS
 N  OBJ
 G  c0      
 L  c1      
 G  c2      
 L  c3      
 G  c4      
 L  c5      
 G  c6      
 G  c7      
 G  c8      
 E  c9      
 E  c10     
 E  c11     
 E  c12     
 E  c13     
 E  c14     
 L  c15     
 L  c16     
 L  c17     
 L  c18     
 L  c19     
 L  c20     
 G  c21     
 G  c22     
 G  c23     
 G  c24     
 G  c25     
 G  c26     
 G  c27     
 G  c28     
 G  c29     
 G  c30     
 G  c31     
 G  c32     
 G  c33     
 G  c34     
 G  c35     
 G  c36     
 G  c37     
 G  c38     
 G  c39     
 G  c40     
 G  c41     
 G  c42     
 G  c43     
 G  c44     
 G  c45     
 G  c46     
 G  c47     
 G  c48     
 G  c49     
 G  c50     
 G  c51     
 G  OF_constraint
COLUMNS
    MARKER    'MARKER'                 'INTORG'
    y[0,0,0]  c0        5
    y[0,0,0]  c1        5
    y[0,0,0]  c9        1
    y[0,0,0]  c15       -10000000
    y[0,0,0]  c24       -10000000
    y[0,0,0]  c25       -10000000
    y[0,0,0]  c26       -10000000
    y[0,0,0]  c27       -10000000
    y[0,0,0]  c28       -10000000
    y[0,0,0]  c29       -10000000
    y[0,0,0]  c30       -10000000
    y[0,0,0]  c31       -10000000
    y[0,1,0]  c10       1
    y[0,1,0]  c16       -10000000
    y[0,1,0]  c21       -3
    y[0,1,0]  c24       -10000000
    y[0,1,0]  c25       -10000000
    y[0,1,0]  c30       -10000000
    y[0,1,0]  c31       -10000000
    y[0,1,0]  c32       -10000000
    y[0,1,0]  c33       -10000000
    y[0,1,0]  c34       -10000000
    y[0,1,0]  c35       -10000000
    y[1,0,0]  c2        5
    y[1,0,0]  c3        5
    y[1,0,0]  c11       1
    y[1,0,0]  c17       -10000000
    y[1,0,0]  c26       -10000000
    y[1,0,0]  c27       -10000000
    y[1,0,0]  c32       -10000000
    y[1,0,0]  c33       -10000000
    y[1,0,0]  c36       -10000000
    y[1,0,0]  c37       -10000000
    y[1,1,1]  c12       1
    y[1,1,1]  c18       -10000000
    y[1,1,1]  c22       -2
    y[1,1,1]  c38       -10000000
    y[1,1,1]  c39       -10000000
    y[1,1,1]  c46       -2
    y[2,0,0]  c4        3
    y[2,0,0]  c5        3
    y[2,0,0]  c13       1
    y[2,0,0]  c19       -10000000
    y[2,0,0]  c28       -10000000
    y[2,0,0]  c29       -10000000
    y[2,0,0]  c34       -10000000
    y[2,0,0]  c35       -10000000
    y[2,0,0]  c36       -10000000
    y[2,0,0]  c37       -10000000
    y[2,1,1]  c14       1
    y[2,1,1]  c20       -10000000
    y[2,1,1]  c23       -2
    y[2,1,1]  c38       -10000000
    y[2,1,1]  c39       -10000000
    x[0,0,0,0]  OBJ       0
    x[0,0,0,1]  c24       10000000
    x[0,0,0,1]  c25       -10000000
    x[0,0,1,0]  c26       10000000
    x[0,0,1,0]  c27       -10000000
    x[0,0,1,1]  OBJ       0
    x[0,0,2,0]  c28       10000000
    x[0,0,2,0]  c29       -10000000
    x[0,0,2,1]  OBJ       0
    x[0,1,0,0]  c30       10000000
    x[0,1,0,0]  c31       -10000000
    x[0,1,0,1]  OBJ       0
    x[0,1,1,0]  c32       10000000
    x[0,1,1,0]  c33       -10000000
    x[0,1,1,1]  OBJ       0
    x[0,1,2,0]  c34       10000000
    x[0,1,2,0]  c35       -10000000
    x[0,1,2,1]  OBJ       0
    x[1,0,0,0]  OBJ       0
    x[1,0,0,1]  OBJ       0
    x[1,0,1,0]  OBJ       0
    x[1,0,1,1]  OBJ       0
    x[1,0,2,0]  c36       10000000
    x[1,0,2,0]  c37       -10000000
    x[1,0,2,1]  OBJ       0
    x[1,1,0,0]  OBJ       0
    x[1,1,0,1]  OBJ       0
    x[1,1,1,0]  OBJ       0
    x[1,1,1,1]  OBJ       0
    x[1,1,2,0]  OBJ       0
    x[1,1,2,1]  c38       10000000
    x[1,1,2,1]  c39       -10000000
    x[2,0,0,0]  OBJ       0
    x[2,0,0,1]  OBJ       0
    x[2,0,1,0]  OBJ       0
    x[2,0,1,1]  OBJ       0
    x[2,0,2,0]  OBJ       0
    x[2,0,2,1]  OBJ       0
    x[2,1,0,0]  OBJ       0
    x[2,1,0,1]  OBJ       0
    x[2,1,1,0]  OBJ       0
    x[2,1,1,1]  OBJ       0
    x[2,1,2,0]  OBJ       0
    x[2,1,2,1]  OBJ       0
    s[0,0,0]  c0        1
    s[0,0,0]  c1        1
    s[0,0,0]  c15       1
    s[0,0,0]  c21       1
    s[0,0,0]  c24       -1
    s[0,0,0]  c25       1
    s[0,0,0]  c26       -1
    s[0,0,0]  c27       1
    s[0,0,0]  c28       -1
    s[0,0,0]  c29       1
    s[0,0,0]  c30       1
    s[0,0,0]  c31       -1
    s[0,0,0]  c40       1
    s[0,0,0]  c41       1
    s[0,1,0]  c16       1
    s[0,1,0]  c21       -1
    s[0,1,0]  c24       1
    s[0,1,0]  c25       -1
    s[0,1,0]  c30       -1
    s[0,1,0]  c31       1
    s[0,1,0]  c32       -1
    s[0,1,0]  c33       1
    s[0,1,0]  c34       -1
    s[0,1,0]  c35       1
    s[0,1,0]  c42       1
    s[0,1,0]  c43       1
    s[1,0,0]  c2        1
    s[1,0,0]  c3        1
    s[1,0,0]  c17       1
    s[1,0,0]  c22       1
    s[1,0,0]  c26       1
    s[1,0,0]  c27       -1
    s[1,0,0]  c32       1
    s[1,0,0]  c33       -1
    s[1,0,0]  c36       -1
    s[1,0,0]  c37       1
    s[1,0,0]  c44       1
    s[1,0,0]  c45       1
    s[1,1,1]  c18       1
    s[1,1,1]  c22       -1
    s[1,1,1]  c38       -1
    s[1,1,1]  c39       1
    s[1,1,1]  c46       1
    s[1,1,1]  c47       1
    s[2,0,0]  c4        1
    s[2,0,0]  c5        1
    s[2,0,0]  c19       1
    s[2,0,0]  c23       1
    s[2,0,0]  c28       1
    s[2,0,0]  c29       -1
    s[2,0,0]  c34       1
    s[2,0,0]  c35       -1
    s[2,0,0]  c36       1
    s[2,0,0]  c37       -1
    s[2,0,0]  c48       1
    s[2,0,0]  c49       1
    s[2,1,1]  c20       1
    s[2,1,1]  c23       -1
    s[2,1,1]  c38       1
    s[2,1,1]  c39       -1
    s[2,1,1]  c50       1
    s[2,1,1]  c51       1
    Z_FO      OBJ       1
    Z_FO      OF_constraint  1
    C49       c0        -10000000
    C49       c1        -10000000
    C49       c6        1
    C49       OF_constraint  -1
    C50       c2        -10000000
    C50       c3        -10000000
    C50       c7        1
    C50       OF_constraint  3
    C51       c4        -10000000
    C51       c5        -10000000
    C51       c8        1
    C51       OF_constraint  7
    MARKER    'MARKER'                 'INTEND'
RHS
    RHS1      c0        -9999996
    RHS1      c1        4
    RHS1      c2        -9999992
    RHS1      c3        8
    RHS1      c4        -9999990
    RHS1      c5        10
    RHS1      c9        1
    RHS1      c10       1
    RHS1      c11       1
    RHS1      c12       1
    RHS1      c13       1
    RHS1      c14       1
    RHS1      c24       -19999987
    RHS1      c25       -29999995
    RHS1      c26       -19999986
    RHS1      c27       -29999983
    RHS1      c28       -19999992
    RHS1      c29       -29999985
    RHS1      c30       -19999995
    RHS1      c31       -29999987
    RHS1      c32       -19999985
    RHS1      c33       -29999975
    RHS1      c34       -19999991
    RHS1      c35       -29999985
    RHS1      c36       -19999987
    RHS1      c37       -29999972
    RHS1      c38       -19999992
    RHS1      c39       -29999990
BOUNDS
 BV BND1      y[0,0,0]
 BV BND1      y[0,1,0]
 BV BND1      y[1,0,0]
 BV BND1      y[1,1,1]
 BV BND1      y[2,0,0]
 BV BND1      y[2,1,1]
 BV BND1      x[0,0,0,0]
 BV BND1      x[0,0,0,1]
 BV BND1      x[0,0,1,0]
 BV BND1      x[0,0,1,1]
 BV BND1      x[0,0,2,0]
 BV BND1      x[0,0,2,1]
 BV BND1      x[0,1,0,0]
 BV BND1      x[0,1,0,1]
 BV BND1      x[0,1,1,0]
 BV BND1      x[0,1,1,1]
 BV BND1      x[0,1,2,0]
 BV BND1      x[0,1,2,1]
 BV BND1      x[1,0,0,0]
 BV BND1      x[1,0,0,1]
 BV BND1      x[1,0,1,0]
 BV BND1      x[1,0,1,1]
 BV BND1      x[1,0,2,0]
 BV BND1      x[1,0,2,1]
 BV BND1      x[1,1,0,0]
 BV BND1      x[1,1,0,1]
 BV BND1      x[1,1,1,0]
 BV BND1      x[1,1,1,1]
 BV BND1      x[1,1,2,0]
 BV BND1      x[1,1,2,1]
 BV BND1      x[2,0,0,0]
 BV BND1      x[2,0,0,1]
 BV BND1      x[2,0,1,0]
 BV BND1      x[2,0,1,1]
 BV BND1      x[2,0,2,0]
 BV BND1      x[2,0,2,1]
 BV BND1      x[2,1,0,0]
 BV BND1      x[2,1,0,1]
 BV BND1      x[2,1,1,0]
 BV BND1      x[2,1,1,1]
 BV BND1      x[2,1,2,0]
 BV BND1      x[2,1,2,1]
 LI BND1      s[0,0,0]  0
 LI BND1      s[0,1,0]  0
 LI BND1      s[1,0,0]  0
 LI BND1      s[1,1,1]  0
 LI BND1      s[2,0,0]  0
 LI BND1      s[2,1,1]  0
 LI BND1      Z_FO      0
 BV BND1      C49     
 BV BND1      C50     
 BV BND1      C51     
QCMATRIX   OF_constraint
    s[0,0,0]  C49       -0.5
    C49       s[0,0,0]  -0.5
    s[1,0,0]  C50       -0.5
    C50       s[1,0,0]  -0.5
    s[2,0,0]  C51       -0.5
    C51       s[2,0,0]  -0.5
ENDATA
