results/sol/URT_03_deadline_heurFalse.sol
# Solution for model JobShopModel
# Objective value = 47
y[0,0,0] 1
y[0,1,0] 1
y[1,0,0] 1
y[1,1,1] 1
y[2,0,0] 1
y[2,1,1] 1
x[0,0,0,0] 0
x[0,0,0,1] 1
x[0,0,1,0] 0
x[0,0,1,1] 0
x[0,0,2,0] 0
x[0,0,2,1] 0
x[0,1,0,0] 0
x[0,1,0,1] 0
x[0,1,1,0] 0
x[0,1,1,1] 0
x[0,1,2,0] 0
x[0,1,2,1] 0
x[1,0,0,0] 0
x[1,0,0,1] 0
x[1,0,1,0] 0
x[1,0,1,1] 0
x[1,0,2,0] 0
x[1,0,2,1] 0
x[1,1,0,0] 0
x[1,1,0,1] 0
x[1,1,1,0] 0
x[1,1,1,1] 0
x[1,1,2,0] 0
x[1,1,2,1] 0
x[2,0,0,0] 0
x[2,0,0,1] 0
x[2,0,1,0] 0
x[2,0,1,1] 0
x[2,0,2,0] 0
x[2,0,2,1] 0
x[2,1,0,0] 0
x[2,1,0,1] 0
x[2,1,1,0] 0
x[2,1,1,1] 0
x[2,1,2,0] 0
x[2,1,2,1] 0
s[0,0,0] 5
s[0,1,0] 0
s[1,0,0] 19
s[1,1,1] 2
s[2,0,0] 32
s[2,1,1] 10
Z_FO 47
C49 1
C50 1
C51 1
